NAME: cuum560.tsp
TYPE: TSP
COMMENT: User-generated TSP file
DIMENSION: 560
EDGE_WEIGHT_TYPE: EUC_2D
NODE_COORD_SECTION
1 214.0 403.0
2 409.0 290.0
3 301.0 175.0
4 45.0 442.0
5 555.0 395.0
6 103.0 478.0
7 159.0 421.0
8 158.0 315.0
9 445.0 163.0
10 552.0 302.0
11 152.0 467.0
12 344.0 9.0
13 219.0 96.0
14 552.0 390.0
15 347.0 532.0
16 104.0 183.0
17 216.0 554.0
18 414.0 490.0
19 374.0 150.0
20 456.0 43.0
21 289.0 137.0
22 423.0 423.0
23 173.0 121.0
24 98.0 182.0
25 351.0 284.0
26 246.0 31.0
27 257.0 102.0
28 451.0 12.0
29 461.0 103.0
30 59.0 352.0
31 416.0 347.0
32 151.0 468.0
33 428.0 239.0
34 93.0 436.0
35 399.0 247.0
36 42.0 486.0
37 150.0 200.0
38 275.0 518.0
39 120.0 546.0
40 184.0 63.0
41 41.0 339.0
42 11.0 21.0
43 118.0 378.0
44 250.0 119.0
45 345.0 323.0
46 14.0 342.0
47 261.0 498.0
48 309.0 135.0
49 301.0 340.0
50 355.0 537.0
51 348.0 519.0
52 138.0 351.0
53 15.0 95.0
54 551.0 4.0
55 123.0 8.0
56 413.0 342.0
57 466.0 556.0
58 408.0 346.0
59 458.0 216.0
60 168.0 487.0
61 518.0 27.0
62 457.0 41.0
63 391.0 149.0
64 416.0 165.0
65 2.0 463.0
66 310.0 402.0
67 211.0 532.0
68 37.0 415.0
69 169.0 537.0
70 466.0 411.0
71 555.0 257.0
72 59.0 17.0
73 297.0 204.0
74 531.0 202.0
75 10.0 107.0
76 432.0 405.0
77 179.0 70.0
78 98.0 375.0
79 126.0 398.0
80 77.0 258.0
81 191.0 284.0
82 316.0 246.0
83 48.0 18.0
84 397.0 91.0
85 209.0 118.0
86 490.0 177.0
87 126.0 102.0
88 211.0 261.0
89 440.0 238.0
90 94.0 304.0
91 149.0 257.0
92 495.0 109.0
93 28.0 304.0
94 357.0 336.0
95 405.0 68.0
96 542.0 248.0
97 387.0 263.0
98 41.0 4.0
99 331.0 382.0
100 532.0 279.0
101 225.0 18.0
102 45.0 364.0
103 170.0 375.0
104 426.0 68.0
105 375.0 287.0
106 506.0 131.0
107 108.0 83.0
108 334.0 97.0
109 108.0 515.0
110 244.0 515.0
111 469.0 265.0
112 245.0 50.0
113 497.0 337.0
114 547.0 215.0
115 319.0 237.0
116 96.0 456.0
117 162.0 486.0
118 235.0 512.0
119 36.0 186.0
120 539.0 295.0
121 525.0 456.0
122 439.0 557.0
123 307.0 376.0
124 282.0 367.0
125 225.0 269.0
126 191.0 327.0
127 550.0 250.0
128 34.0 68.0
129 321.0 346.0
130 75.0 548.0
131 102.0 80.0
132 134.0 137.0
133 423.0 417.0
134 167.0 287.0
135 262.0 227.0
136 508.0 309.0
137 281.0 445.0
138 158.0 184.0
139 352.0 247.0
140 492.0 501.0
141 14.0 199.0
142 321.0 538.0
143 549.0 286.0
144 219.0 478.0
145 115.0 500.0
146 126.0 403.0
147 181.0 20.0
148 287.0 434.0
149 491.0 560.0
150 315.0 272.0
151 31.0 391.0
152 215.0 83.0
153 83.0 205.0
154 512.0 514.0
155 5.0 515.0
156 435.0 436.0
157 57.0 411.0
158 5.0 365.0
159 319.0 201.0
160 502.0 336.0
161 162.0 461.0
162 57.0 521.0
163 271.0 269.0
164 125.0 201.0
165 12.0 129.0
166 54.0 524.0
167 120.0 41.0
168 69.0 292.0
169 515.0 394.0
170 364.0 523.0
171 255.0 154.0
172 346.0 296.0
173 427.0 343.0
174 112.0 17.0
175 228.0 19.0
176 195.0 545.0
177 174.0 30.0
178 72.0 117.0
179 251.0 310.0
180 306.0 19.0
181 327.0 361.0
182 203.0 384.0
183 1.0 115.0
184 531.0 410.0
185 487.0 292.0
186 53.0 5.0
187 63.0 512.0
188 514.0 313.0
189 473.0 141.0
190 72.0 306.0
191 357.0 513.0
192 369.0 155.0
193 248.0 165.0
194 359.0 62.0
195 236.0 146.0
196 376.0 100.0
197 493.0 195.0
198 29.0 52.0
199 256.0 223.0
200 501.0 543.0
201 31.0 140.0
202 32.0 345.0
203 42.0 82.0
204 66.0 273.0
205 277.0 82.0
206 202.0 462.0
207 5.0 178.0
208 460.0 175.0
209 284.0 304.0
210 81.0 288.0
211 453.0 277.0
212 97.0 555.0
213 305.0 282.0
214 183.0 296.0
215 560.0 450.0
216 179.0 348.0
217 124.0 165.0
218 95.0 369.0
219 143.0 230.0
220 41.0 53.0
221 20.0 350.0
222 291.0 135.0
223 349.0 535.0
224 229.0 198.0
225 101.0 373.0
226 214.0 193.0
227 19.0 256.0
228 345.0 440.0
229 398.0 459.0
230 461.0 174.0
231 422.0 459.0
232 557.0 483.0
233 215.0 486.0
234 302.0 549.0
235 22.0 518.0
236 362.0 264.0
237 402.0 147.0
238 133.0 426.0
239 248.0 292.0
240 140.0 48.0
241 157.0 354.0
242 39.0 389.0
243 234.0 21.0
244 193.0 8.0
245 559.0 156.0
246 492.0 421.0
247 185.0 29.0
248 330.0 113.0
249 157.0 518.0
250 122.0 478.0
251 517.0 533.0
252 83.0 354.0
253 221.0 445.0
254 43.0 334.0
255 116.0 435.0
256 459.0 117.0
257 359.0 322.0
258 420.0 351.0
259 436.0 459.0
260 180.0 131.0
261 503.0 455.0
262 548.0 91.0
263 143.0 252.0
264 105.0 155.0
265 541.0 162.0
266 284.0 466.0
267 123.0 499.0
268 179.0 243.0
269 179.0 169.0
270 538.0 275.0
271 45.0 336.0
272 65.0 98.0
273 514.0 368.0
274 180.0 303.0
275 69.0 33.0
276 78.0 131.0
277 414.0 494.0
278 181.0 18.0
279 416.0 101.0
280 421.0 297.0
281 135.0 414.0
282 315.0 23.0
283 395.0 530.0
284 259.0 519.0
285 490.0 92.0
286 553.0 91.0
287 515.0 123.0
288 156.0 395.0
289 123.0 495.0
290 136.0 317.0
291 406.0 6.0
292 416.0 61.0
293 369.0 239.0
294 398.0 233.0
295 472.0 438.0
296 122.0 451.0
297 342.0 127.0
298 379.0 448.0
299 136.0 530.0
300 197.0 191.0
301 92.0 395.0
302 452.0 374.0
303 230.0 76.0
304 500.0 456.0
305 142.0 396.0
306 42.0 244.0
307 363.0 313.0
308 500.0 188.0
309 537.0 3.0
310 270.0 268.0
311 412.0 321.0
312 353.0 359.0
313 178.0 134.0
314 246.0 166.0
315 452.0 408.0
316 115.0 29.0
317 48.0 258.0
318 198.0 123.0
319 392.0 2.0
320 192.0 235.0
321 292.0 248.0
322 508.0 227.0
323 441.0 180.0
324 555.0 26.0
325 126.0 392.0
326 550.0 166.0
327 321.0 72.0
328 378.0 400.0
329 200.0 339.0
330 274.0 318.0
331 425.0 133.0
332 507.0 76.0
333 154.0 478.0
334 43.0 552.0
335 136.0 545.0
336 285.0 240.0
337 77.0 51.0
338 464.0 331.0
339 448.0 400.0
340 361.0 252.0
341 365.0 244.0
342 409.0 181.0
343 357.0 30.0
344 145.0 389.0
345 218.0 280.0
346 38.0 428.0
347 116.0 304.0
348 51.0 139.0
349 173.0 311.0
350 251.0 117.0
351 198.0 512.0
352 122.0 391.0
353 269.0 546.0
354 213.0 5.0
355 327.0 387.0
356 329.0 519.0
357 8.0 490.0
358 290.0 113.0
359 196.0 550.0
360 238.0 228.0
361 200.0 208.0
362 102.0 267.0
363 124.0 412.0
364 151.0 180.0
365 547.0 85.0
366 553.0 424.0
367 273.0 474.0
368 408.0 55.0
369 162.0 295.0
370 230.0 500.0
371 8.0 196.0
372 403.0 125.0
373 57.0 218.0
374 520.0 475.0
375 493.0 458.0
376 272.0 527.0
377 138.0 53.0
378 294.0 535.0
379 359.0 21.0
380 364.0 388.0
381 69.0 207.0
382 402.0 95.0
383 315.0 217.0
384 42.0 348.0
385 242.0 430.0
386 548.0 440.0
387 99.0 258.0
388 303.0 275.0
389 285.0 548.0
390 204.0 68.0
391 9.0 86.0
392 284.0 277.0
393 287.0 78.0
394 466.0 367.0
395 544.0 413.0
396 156.0 351.0
397 468.0 559.0
398 409.0 384.0
399 451.0 547.0
400 85.0 451.0
401 211.0 411.0
402 129.0 301.0
403 356.0 473.0
404 149.0 455.0
405 522.0 201.0
406 439.0 301.0
407 229.0 69.0
408 92.0 452.0
409 537.0 76.0
410 297.0 54.0
411 543.0 437.0
412 176.0 181.0
413 324.0 208.0
414 37.0 448.0
415 498.0 294.0
416 301.0 74.0
417 214.0 311.0
418 179.0 183.0
419 210.0 116.0
420 194.0 331.0
421 305.0 293.0
422 265.0 550.0
423 397.0 306.0
424 147.0 282.0
425 398.0 21.0
426 294.0 61.0
427 134.0 372.0
428 471.0 484.0
429 541.0 213.0
430 369.0 343.0
431 327.0 108.0
432 231.0 429.0
433 512.0 413.0
434 201.0 31.0
435 305.0 69.0
436 107.0 37.0
437 349.0 299.0
438 58.0 427.0
439 312.0 372.0
440 21.0 242.0
441 537.0 213.0
442 86.0 232.0
443 430.0 119.0
444 304.0 187.0
445 274.0 480.0
446 147.0 180.0
447 359.0 458.0
448 68.0 205.0
449 413.0 460.0
450 262.0 407.0
451 496.0 134.0
452 355.0 169.0
453 439.0 308.0
454 223.0 399.0
455 465.0 252.0
456 135.0 234.0
457 401.0 184.0
458 139.0 340.0
459 520.0 540.0
460 463.0 317.0
461 312.0 131.0
462 432.0 433.0
463 34.0 334.0
464 256.0 145.0
465 255.0 373.0
466 177.0 364.0
467 278.0 74.0
468 356.0 303.0
469 506.0 47.0
470 184.0 300.0
471 114.0 405.0
472 403.0 246.0
473 438.0 174.0
474 539.0 426.0
475 19.0 446.0
476 55.0 70.0
477 147.0 26.0
478 530.0 29.0
479 458.0 254.0
480 19.0 71.0
481 482.0 172.0
482 36.0 265.0
483 463.0 297.0
484 267.0 424.0
485 253.0 517.0
486 69.0 191.0
487 324.0 546.0
488 451.0 349.0
489 530.0 392.0
490 259.0 104.0
491 25.0 102.0
492 102.0 276.0
493 529.0 103.0
494 133.0 268.0
495 416.0 417.0
496 472.0 279.0
497 51.0 207.0
498 444.0 39.0
499 554.0 40.0
500 280.0 239.0
501 16.0 420.0
502 68.0 330.0
503 118.0 21.0
504 212.0 79.0
505 219.0 270.0
506 202.0 51.0
507 390.0 167.0
508 280.0 59.0
509 285.0 396.0
510 355.0 75.0
511 478.0 79.0
512 142.0 207.0
513 22.0 258.0
514 59.0 152.0
515 505.0 288.0
516 334.0 161.0
517 302.0 312.0
518 472.0 11.0
519 468.0 406.0
520 348.0 16.0
521 171.0 434.0
522 232.0 501.0
523 156.0 9.0
524 257.0 71.0
525 12.0 1.0
526 100.0 474.0
527 531.0 406.0
528 257.0 532.0
529 91.0 269.0
530 8.0 70.0
531 558.0 550.0
532 315.0 523.0
533 315.0 554.0
534 179.0 534.0
535 463.0 132.0
536 316.0 365.0
537 531.0 541.0
538 316.0 121.0
539 173.0 440.0
540 512.0 9.0
541 178.0 227.0
542 374.0 200.0
543 404.0 169.0
544 41.0 455.0
545 74.0 410.0
546 378.0 386.0
547 512.0 354.0
548 161.0 318.0
549 129.0 104.0
550 519.0 238.0
551 452.0 185.0
552 223.0 14.0
553 114.0 488.0
554 156.0 141.0
555 437.0 211.0
556 292.0 156.0
557 456.0 351.0
558 195.0 473.0
559 193.0 473.0
560 532.0 162.0
EOF





